p edge 1080 2592
e 1 58
e 1 203
e 1 284
e 1 445
e 1 487
e 1 529
e 1 573
e 1 853
e 1 935
e 1 942
e 1 1015
e 1 1052
e 2 447
e 2 968
e 2 1055
e 3 561
e 3 762
e 3 968
e 4 308
e 4 648
e 4 999
e 5 349
e 5 485
e 5 621
e 6 67
e 6 228
e 6 583
e 7 358
e 7 717
e 7 901
e 8 69
e 8 300
e 8 442
e 8 459
e 8 506
e 8 739
e 8 745
e 8 933
e 8 957
e 8 987
e 8 1030
e 8 1058
e 9 200
e 9 635
e 9 934
e 10 290
e 10 564
e 10 907
e 11 217
e 11 334
e 11 374
e 12 273
e 12 717
e 12 1055
e 13 56
e 13 250
e 13 261
e 13 331
e 13 454
e 13 535
e 13 748
e 13 779
e 13 830
e 13 956
e 13 987
e 13 1000
e 14 209
e 14 215
e 14 637
e 15 426
e 15 764
e 15 858
e 16 78
e 16 136
e 16 144
e 16 281
e 16 408
e 16 433
e 16 557
e 16 619
e 16 622
e 16 751
e 16 821
e 16 936
e 17 647
e 17 684
e 17 839
e 18 153
e 18 155
e 18 822
e 19 209
e 19 647
e 19 1004
e 20 184
e 20 471
e 20 1004
e 21 731
e 21 814
e 21 971
e 22 195
e 22 228
e 22 561
e 23 264
e 23 307
e 23 815
e 24 290
e 24 524
e 24 790
e 25 200
e 25 577
e 25 678
e 26 160
e 26 961
e 26 968
e 27 259
e 27 481
e 27 645
e 28 160
e 28 805
e 28 958
e 29 290
e 29 680
e 29 1013
e 30 36
e 30 115
e 30 426
e 31 901
e 31 912
e 31 961
e 32 523
e 32 886
e 32 907
e 33 350
e 33 717
e 33 961
e 34 92
e 34 148
e 34 287
e 34 508
e 34 517
e 34 529
e 34 679
e 34 759
e 34 821
e 34 854
e 34 888
e 34 1043
e 35 99
e 35 184
e 35 354
e 36 69
e 36 191
e 36 225
e 36 324
e 36 488
e 36 497
e 36 516
e 36 776
e 36 787
e 36 803
e 36 944
e 37 99
e 37 321
e 37 697
e 38 96
e 38 134
e 38 147
e 38 179
e 38 337
e 38 392
e 38 458
e 38 518
e 38 633
e 38 848
e 38 957
e 38 969
e 39 577
e 39 855
e 39 958
e 40 563
e 40 578
e 40 768
e 41 338
e 41 629
e 41 912
e 42 201
e 42 259
e 42 814
e 43 424
e 43 466
e 43 475
e 43 478
e 43 513
e 43 551
e 43 596
e 43 618
e 43 759
e 43 876
e 43 975
e 43 1021
e 44 354
e 44 380
e 44 1012
e 45 60
e 45 764
e 45 947
e 46 229
e 46 371
e 46 521
e 47 91
e 47 120
e 47 437
e 47 542
e 47 704
e 47 725
e 47 772
e 47 823
e 47 868
e 47 927
e 47 1001
e 47 1041
e 48 323
e 48 635
e 48 855
e 49 212
e 49 639
e 49 976
e 50 371
e 50 696
e 50 976
e 51 68
e 51 247
e 51 504
e 52 176
e 52 228
e 52 802
e 53 98
e 53 223
e 53 303
e 53 527
e 53 672
e 53 743
e 53 872
e 53 883
e 53 887
e 53 941
e 53 959
e 53 974
e 54 271
e 54 280
e 54 979
e 55 523
e 55 754
e 55 986
e 56 99
e 56 227
e 57 389
e 57 591
e 57 716
e 58 490
e 58 1062
e 59 575
e 59 855
e 59 1059
e 60 144
e 60 222
e 60 643
e 60 722
e 60 759
e 60 769
e 60 807
e 60 928
e 60 1034
e 60 1052
e 60 1071
e 61 302
e 61 321
e 61 678
e 62 271
e 62 858
e 62 1047
e 63 135
e 63 169
e 63 435
e 63 464
e 63 593
e 63 626
e 63 703
e 63 726
e 63 766
e 63 960
e 63 985
e 63 997
e 64 162
e 64 177
e 64 231
e 64 233
e 64 261
e 64 359
e 64 414
e 64 667
e 64 828
e 64 845
e 64 888
e 64 991
e 65 215
e 65 607
e 65 1072
e 66 381
e 66 472
e 66 749
e 67 178
e 67 231
e 67 244
e 67 313
e 67 439
e 67 740
e 67 962
e 67 992
e 67 1014
e 67 1060
e 67 1065
e 68 107
e 68 197
e 68 297
e 68 319
e 68 820
e 68 909
e 68 941
e 68 973
e 68 1025
e 68 1042
e 68 1050
e 69 1062
e 70 615
e 70 842
e 70 1072
e 71 481
e 71 597
e 71 994
e 72 219
e 72 224
e 72 321
e 73 108
e 73 607
e 73 1063
e 74 455
e 74 953
e 74 1011
e 75 131
e 75 358
e 75 601
e 76 160
e 76 354
e 76 842
e 77 770
e 77 931
e 77 1026
e 78 349
e 78 947
e 79 913
e 79 958
e 79 1072
e 80 176
e 80 681
e 80 727
e 81 358
e 81 481
e 81 913
e 82 471
e 82 482
e 82 886
e 83 389
e 83 754
e 83 871
e 84 648
e 84 762
e 84 1011
e 85 228
e 85 353
e 85 1079
e 86 219
e 86 802
e 86 1039
e 87 764
e 87 840
e 87 1062
e 88 115
e 88 490
e 88 564
e 89 280
e 89 447
e 89 1004
e 90 323
e 90 727
e 90 736
e 91 678
e 91 822
e 92 489
e 92 1066
e 93 354
e 93 385
e 93 875
e 94 208
e 94 224
e 94 716
e 95 354
e 95 438
e 95 958
e 96 381
e 96 426
e 97 264
e 97 839
e 97 1016
e 98 525
e 98 958
e 99 167
e 99 316
e 99 434
e 99 498
e 99 560
e 99 920
e 99 977
e 99 1022
e 99 1035
e 100 171
e 100 273
e 100 575
e 101 637
e 101 1066
e 101 1072
e 102 264
e 102 401
e 102 983
e 103 601
e 103 629
e 103 958
e 104 302
e 104 521
e 104 931
e 105 353
e 105 396
e 105 402
e 106 155
e 106 489
e 106 716
e 107 577
e 107 886
e 108 122
e 108 154
e 108 168
e 108 244
e 108 278
e 108 288
e 108 424
e 108 606
e 108 669
e 108 672
e 108 987
e 109 350
e 109 796
e 109 983
e 110 201
e 110 538
e 110 908
e 111 200
e 111 736
e 111 790
e 112 647
e 112 994
e 112 1072
e 113 385
e 113 472
e 113 680
e 114 329
e 114 371
e 114 1026
e 115 143
e 115 199
e 115 204
e 115 409
e 115 565
e 115 709
e 115 848
e 115 923
e 115 1046
e 115 1057
e 116 209
e 116 701
e 116 958
e 117 131
e 117 349
e 117 934
e 118 208
e 118 308
e 118 939
e 119 175
e 119 855
e 119 1047
e 120 521
e 120 1012
e 121 215
e 121 702
e 121 1079
e 122 647
e 122 1079
e 123 153
e 123 224
e 123 815
e 124 172
e 124 268
e 124 360
e 124 529
e 124 557
e 124 609
e 124 737
e 124 809
e 124 838
e 124 937
e 124 978
e 124 985
e 125 449
e 125 465
e 125 561
e 126 131
e 126 802
e 126 961
e 127 381
e 127 564
e 127 840
e 128 201
e 128 472
e 128 926
e 129 224
e 129 273
e 129 580
e 130 402
e 130 485
e 130 858
e 131 192
e 131 230
e 131 406
e 131 429
e 131 602
e 131 654
e 131 807
e 131 966
e 131 997
e 132 329
e 132 696
e 132 702
e 133 538
e 133 1024
e 133 1026
e 134 829
e 134 907
e 135 175
e 135 645
e 136 727
e 136 770
e 137 259
e 137 271
e 137 898
e 138 525
e 138 864
e 138 913
e 139 485
e 139 684
e 139 979
e 140 184
e 140 402
e 140 738
e 141 209
e 141 645
e 141 908
e 142 199
e 142 299
e 142 325
e 142 450
e 142 452
e 142 646
e 142 720
e 142 747
e 142 823
e 142 873
e 142 952
e 142 991
e 143 775
e 143 875
e 144 449
e 145 471
e 145 939
e 145 994
e 146 334
e 146 563
e 146 822
e 147 312
e 147 754
e 148 425
e 148 971
e 149 176
e 149 354
e 149 381
e 150 485
e 150 756
e 150 1062
e 151 200
e 151 308
e 151 680
e 152 447
e 152 805
e 152 842
e 153 156
e 153 205
e 153 492
e 153 530
e 153 640
e 153 659
e 153 741
e 153 924
e 153 1019
e 153 1065
e 154 279
e 154 471
e 155 168
e 155 248
e 155 277
e 155 460
e 155 469
e 155 475
e 155 677
e 155 1008
e 155 1049
e 155 1068
e 156 176
e 156 912
e 157 192
e 157 197
e 157 283
e 157 317
e 157 332
e 157 345
e 157 360
e 157 530
e 157 755
e 157 826
e 157 900
e 157 1034
e 158 338
e 158 802
e 158 901
e 159 481
e 159 607
e 159 1066
e 160 216
e 160 336
e 160 528
e 160 715
e 160 747
e 160 793
e 160 799
e 160 816
e 160 1054
e 161 184
e 161 485
e 161 756
e 162 489
e 162 575
e 163 212
e 163 814
e 163 1026
e 164 239
e 164 381
e 164 717
e 165 217
e 165 697
e 165 983
e 166 334
e 166 968
e 166 983
e 167 334
e 167 815
e 168 273
e 169 353
e 169 449
e 170 229
e 170 926
e 170 1024
e 171 192
e 171 260
e 171 296
e 171 388
e 171 433
e 171 513
e 171 579
e 171 792
e 171 844
e 171 1015
e 171 1043
e 172 473
e 172 911
e 173 264
e 173 321
e 173 563
e 174 805
e 174 931
e 174 953
e 175 214
e 175 282
e 175 314
e 175 322
e 175 328
e 175 423
e 175 462
e 175 588
e 175 611
e 175 804
e 176 318
e 176 398
e 176 409
e 176 595
e 176 705
e 176 746
e 176 753
e 176 993
e 177 481
e 177 637
e 178 702
e 178 1066
e 179 979
e 179 1063
e 180 455
e 180 754
e 180 1024
e 181 591
e 181 790
e 181 939
e 182 727
e 182 764
e 182 864
e 183 239
e 183 385
e 183 1016
e 184 294
e 184 330
e 184 486
e 184 743
e 184 869
e 184 889
e 184 892
e 184 967
e 185 257
e 185 272
e 185 277
e 185 306
e 185 355
e 185 362
e 185 420
e 185 427
e 185 480
e 185 556
e 185 803
e 185 969
e 186 238
e 186 402
e 186 432
e 187 226
e 187 898
e 187 934
e 188 280
e 188 396
e 188 438
e 189 312
e 189 597
e 189 814
e 190 298
e 190 398
e 190 430
e 190 434
e 190 462
e 190 503
e 190 507
e 190 619
e 190 688
e 190 897
e 190 918
e 190 935
e 191 858
e 191 1063
e 193 208
e 193 432
e 193 1011
e 194 396
e 194 481
e 194 647
e 195 205
e 195 278
e 195 359
e 195 421
e 195 585
e 195 587
e 195 723
e 195 724
e 195 773
e 195 785
e 195 1078
e 196 229
e 196 814
e 196 986
e 197 635
e 198 367
e 198 504
e 198 898
e 199 717
e 200 317
e 200 347
e 200 394
e 200 417
e 200 544
e 200 660
e 200 801
e 200 959
e 201 233
e 201 421
e 201 436
e 201 592
e 201 779
e 201 832
e 201 995
e 201 1036
e 201 1060
e 202 426
e 202 913
e 202 1013
e 203 768
e 203 770
e 204 472
e 204 736
e 205 353
e 206 635
e 206 839
e 206 858
e 207 521
e 207 594
e 207 621
e 208 234
e 208 384
e 208 539
e 208 667
e 208 674
e 208 854
e 208 859
e 208 869
e 208 1008
e 209 357
e 209 373
e 209 555
e 209 763
e 209 845
e 209 915
e 209 921
e 209 1000
e 210 259
e 210 449
e 210 1072
e 211 219
e 211 389
e 211 822
e 212 269
e 212 306
e 212 480
e 212 655
e 212 794
e 212 804
e 212 865
e 212 891
e 212 996
e 212 1048
e 213 402
e 213 485
e 213 939
e 214 449
e 214 465
e 215 325
e 215 333
e 215 412
e 215 585
e 215 638
e 215 748
e 215 824
e 215 854
e 215 1060
e 216 280
e 216 994
e 217 235
e 217 243
e 217 265
e 217 341
e 217 384
e 217 422
e 217 652
e 217 799
e 217 904
e 217 950
e 218 425
e 218 577
e 218 842
e 219 399
e 219 512
e 219 515
e 219 587
e 219 753
e 219 835
e 219 900
e 219 1014
e 219 1068
e 220 396
e 220 561
e 220 684
e 221 353
e 221 465
e 221 947
e 222 350
e 222 575
e 223 482
e 223 678
e 224 266
e 224 344
e 224 424
e 224 499
e 224 556
e 224 836
e 224 882
e 224 964
e 225 290
e 225 983
e 226 347
e 226 509
e 226 540
e 226 746
e 226 809
e 226 826
e 226 885
e 226 964
e 226 1008
e 226 1050
e 226 1076
e 227 549
e 227 570
e 227 600
e 227 612
e 227 668
e 227 704
e 227 721
e 227 834
e 227 895
e 227 948
e 227 1053
e 228 237
e 228 283
e 228 363
e 228 397
e 228 774
e 228 836
e 228 954
e 228 1049
e 229 550
e 229 572
e 229 592
e 229 600
e 229 692
e 229 713
e 229 857
e 229 865
e 229 910
e 230 912
e 230 1055
e 231 371
e 232 432
e 232 485
e 232 684
e 233 1079
e 234 238
e 234 968
e 235 455
e 235 561
e 236 432
e 236 577
e 236 994
e 237 367
e 237 524
e 238 243
e 238 255
e 238 276
e 238 330
e 238 457
e 238 519
e 238 520
e 238 643
e 238 698
e 238 844
e 239 333
e 239 437
e 239 522
e 239 528
e 239 628
e 239 636
e 239 682
e 239 828
e 239 884
e 239 1057
e 240 380
e 240 762
e 240 790
e 241 249
e 241 839
e 241 908
e 242 926
e 242 986
e 242 1026
e 243 489
e 244 597
e 245 525
e 245 575
e 245 971
e 246 697
e 246 907
e 246 968
e 247 275
e 247 347
e 247 410
e 247 675
e 247 679
e 247 685
e 247 691
e 247 779
e 247 833
e 247 990
e 247 1040
e 248 504
e 248 591
e 249 548
e 249 604
e 249 626
e 249 634
e 249 671
e 249 821
e 249 826
e 249 905
e 249 922
e 249 942
e 249 981
e 250 371
e 250 971
e 251 485
e 251 591
e 251 968
e 252 482
e 252 934
e 252 1047
e 253 425
e 253 770
e 253 913
e 254 264
e 254 271
e 254 601
e 255 402
e 255 979
e 256 269
e 256 392
e 256 403
e 256 418
e 256 469
e 256 655
e 256 795
e 256 882
e 256 943
e 256 944
e 256 1037
e 256 1077
e 257 312
e 257 564
e 258 472
e 258 481
e 258 947
e 259 537
e 259 547
e 259 555
e 259 656
e 259 729
e 259 922
e 259 978
e 259 1046
e 260 485
e 260 871
e 261 1072
e 262 472
e 262 538
e 262 702
e 263 402
e 263 738
e 263 1062
e 264 453
e 264 498
e 264 528
e 264 553
e 264 873
e 264 904
e 264 1080
e 265 338
e 265 447
e 266 489
e 266 504
e 267 490
e 267 701
e 267 1013
e 268 613
e 268 764
e 269 802
e 270 279
e 270 329
e 270 686
e 271 501
e 271 627
e 271 642
e 271 671
e 271 690
e 271 937
e 271 949
e 271 1056
e 272 912
e 272 1024
e 273 327
e 273 346
e 273 365
e 273 508
e 273 653
e 273 694
e 273 782
e 273 928
e 274 476
e 274 699
e 274 814
e 275 637
e 275 702
e 276 684
e 276 1062
e 277 279
e 278 699
e 279 418
e 279 493
e 279 499
e 279 510
e 279 571
e 279 806
e 279 844
e 279 883
e 279 1071
e 280 295
e 280 332
e 280 407
e 280 417
e 280 423
e 280 545
e 280 929
e 280 1042
e 281 426
e 281 1062
e 282 473
e 282 947
e 283 796
e 284 840
e 284 858
e 285 371
e 285 908
e 285 926
e 286 597
e 286 1004
e 286 1072
e 287 764
e 287 898
e 288 379
e 288 637
e 289 561
e 289 756
e 289 994
e 290 337
e 290 415
e 290 562
e 290 567
e 290 641
e 290 724
e 290 728
e 290 962
e 291 481
e 291 699
e 291 1004
e 292 338
e 292 438
e 292 968
e 293 472
e 293 645
e 293 1072
e 294 396
e 294 577
e 295 323
e 295 425
e 296 367
e 296 629
e 297 308
e 297 749
e 298 323
e 298 749
e 299 851
e 299 1055
e 300 686
e 300 999
e 301 308
e 301 482
e 301 736
e 302 369
e 302 494
e 302 590
e 302 646
e 302 668
e 302 710
e 302 867
e 302 884
e 302 1061
e 302 1074
e 303 842
e 303 855
e 304 521
e 304 639
e 304 986
e 305 731
e 305 871
e 305 976
e 306 999
e 307 331
e 307 361
e 307 375
e 307 479
e 307 503
e 307 665
e 307 706
e 307 721
e 307 788
e 307 892
e 307 1075
e 308 356
e 308 387
e 308 567
e 308 758
e 308 837
e 308 967
e 308 972
e 309 312
e 309 416
e 309 749
e 310 465
e 310 583
e 310 645
e 311 471
e 311 742
e 311 871
e 312 676
e 312 728
e 312 784
e 312 831
e 312 906
e 312 944
e 312 1006
e 312 1032
e 313 580
e 313 647
e 314 976
e 314 986
e 315 716
e 315 953
e 315 1039
e 316 727
e 316 770
e 317 1047
e 318 768
e 318 911
e 319 736
e 319 1011
e 320 538
e 320 696
e 320 986
e 321 361
e 321 468
e 321 492
e 321 781
e 321 850
e 321 868
e 321 910
e 321 1049
e 322 425
e 322 635
e 323 464
e 323 536
e 323 599
e 323 663
e 323 891
e 323 965
e 323 1007
e 323 1027
e 324 416
e 324 907
e 325 648
e 326 476
e 326 736
e 326 829
e 327 558
e 327 983
e 328 727
e 328 749
e 329 372
e 329 511
e 329 566
e 329 592
e 329 663
e 329 668
e 329 804
e 329 877
e 329 927
e 330 684
e 331 931
e 332 482
e 333 380
e 334 361
e 334 452
e 334 505
e 334 628
e 334 658
e 334 715
e 334 917
e 334 1056
e 335 379
e 335 731
e 335 999
e 336 338
e 336 401
e 337 374
e 338 653
e 338 654
e 338 682
e 338 710
e 338 712
e 338 823
e 338 1021
e 339 583
e 339 684
e 339 1004
e 340 402
e 340 597
e 340 839
e 341 591
e 341 738
e 342 851
e 342 961
e 342 989
e 343 697
e 343 717
e 343 839
e 344 350
e 344 742
e 345 349
e 345 629
e 346 389
e 346 742
e 348 396
e 348 447
e 348 635
e 349 456
e 349 463
e 349 478
e 349 508
e 349 519
e 349 806
e 349 852
e 349 853
e 350 404
e 350 460
e 350 463
e 350 669
e 350 712
e 350 777
e 350 812
e 350 1043
e 351 802
e 351 886
e 351 983
e 352 681
e 352 696
e 352 815
e 353 526
e 353 568
e 353 711
e 353 841
e 353 950
e 353 1014
e 353 1017
e 354 375
e 354 440
e 354 565
e 354 761
e 354 895
e 354 988
e 355 802
e 355 986
e 356 416
e 356 524
e 357 358
e 357 615
e 358 467
e 358 527
e 358 793
e 358 813
e 358 849
e 358 919
e 358 988
e 358 1070
e 359 702
e 360 504
e 362 762
e 362 1024
e 363 523
e 363 875
e 364 597
e 364 742
e 364 1079
e 365 601
e 365 961
e 366 401
e 366 561
e 366 999
e 367 417
e 367 512
e 367 807
e 367 809
e 367 852
e 367 905
e 367 909
e 367 955
e 367 1019
e 368 416
e 368 911
e 368 1079
e 369 490
e 369 558
e 370 684
e 370 738
e 370 939
e 371 547
e 371 574
e 371 585
e 371 718
e 371 819
e 371 1040
e 372 851
e 372 1012
e 373 842
e 373 913
e 374 453
e 374 491
e 374 500
e 374 610
e 374 614
e 374 694
e 374 776
e 374 777
e 374 940
e 374 975
e 375 432
e 376 425
e 376 615
e 376 864
e 377 447
e 377 697
e 377 989
e 378 615
e 378 678
e 378 1063
e 379 400
e 379 411
e 379 454
e 379 497
e 379 514
e 379 518
e 379 532
e 379 543
e 379 598
e 379 1003
e 380 414
e 380 450
e 380 595
e 380 616
e 380 780
e 380 837
e 380 885
e 380 1009
e 380 1053
e 381 488
e 381 569
e 381 720
e 381 729
e 381 765
e 381 810
e 381 984
e 382 396
e 382 583
e 382 756
e 383 839
e 383 979
e 383 1047
e 384 485
e 385 413
e 385 537
e 385 552
e 385 633
e 385 787
e 385 811
e 385 902
e 385 952
e 385 993
e 386 597
e 386 756
e 386 1064
e 387 762
e 387 953
e 388 901
e 388 934
e 389 418
e 389 420
e 389 492
e 389 540
e 389 551
e 389 669
e 389 774
e 389 859
e 390 577
e 390 939
e 390 1004
e 391 684
e 391 738
e 391 858
e 392 476
e 393 472
e 393 839
e 393 898
e 394 504
e 394 1059
e 395 701
e 395 886
e 395 1063
e 396 419
e 396 732
e 396 763
e 396 872
e 396 1054
e 397 912
e 397 1039
e 398 1073
e 399 524
e 399 934
e 400 683
e 400 701
e 401 491
e 401 649
e 401 658
e 401 674
e 401 698
e 401 711
e 401 847
e 401 880
e 401 1023
e 402 651
e 402 690
e 402 1028
e 402 1051
e 403 912
e 403 986
e 404 1016
e 404 1055
e 405 523
e 405 678
e 405 983
e 406 842
e 406 1016
e 407 639
e 407 855
e 408 490
e 408 858
e 409 805
e 410 425
e 410 575
e 411 607
e 411 742
e 412 575
e 412 591
e 413 717
e 413 989
e 414 989
e 415 476
e 415 749
e 416 458
e 416 546
e 416 614
e 416 624
e 416 740
e 416 785
e 416 914
e 416 916
e 419 699
e 419 1072
e 420 621
e 421 1066
e 422 583
e 422 762
e 423 525
e 425 527
e 425 531
e 425 554
e 425 603
e 425 608
e 426 445
e 426 552
e 426 700
e 426 772
e 426 831
e 426 980
e 426 1061
e 427 455
e 427 986
e 428 601
e 428 697
e 428 1064
e 429 717
e 429 958
e 430 764
e 430 770
e 431 465
e 431 686
e 431 901
e 432 560
e 432 732
e 432 758
e 432 778
e 432 817
e 432 887
e 432 1044
e 433 645
e 434 578
e 435 681
e 435 898
e 436 521
e 436 696
e 437 961
e 438 452
e 438 553
e 438 636
e 438 652
e 438 750
e 438 874
e 438 919
e 438 1023
e 438 1045
e 439 699
e 439 742
e 440 563
e 440 939
e 441 696
e 441 822
e 441 1073
e 442 455
e 442 594
e 443 591
e 443 613
e 443 1066
e 444 738
e 444 756
e 444 979
e 445 979
e 446 482
e 446 680
e 446 1011
e 447 628
e 447 631
e 447 846
e 447 873
e 447 880
e 447 988
e 448 639
e 448 749
e 448 768
e 449 464
e 449 650
e 449 792
e 449 853
e 449 863
e 449 894
e 449 921
e 450 1066
e 451 615
e 451 840
e 451 1013
e 453 968
e 454 580
e 455 598
e 455 655
e 455 837
e 455 847
e 455 945
e 455 946
e 455 1017
e 456 645
e 456 764
e 457 756
e 457 939
e 458 983
e 459 580
e 459 607
e 460 580
e 461 864
e 461 1012
e 461 1026
e 462 680
e 463 613
e 465 502
e 465 632
e 465 673
e 465 838
e 465 966
e 465 981
e 465 1007
e 466 601
e 466 1055
e 467 701
e 467 1072
e 468 696
e 468 911
e 469 871
e 470 580
e 470 699
e 470 1079
e 471 603
e 471 644
e 471 660
e 471 732
e 471 813
e 471 820
e 471 856
e 472 609
e 472 671
e 472 718
e 472 921
e 473 526
e 473 589
e 473 602
e 473 634
e 473 650
e 473 657
e 473 760
e 473 870
e 473 894
e 473 965
e 474 678
e 474 815
e 474 851
e 475 742
e 476 495
e 476 582
e 476 586
e 476 693
e 476 803
e 476 916
e 476 951
e 476 980
e 477 482
e 477 577
e 477 683
e 478 575
e 479 578
e 479 727
e 480 523
e 481 748
e 481 863
e 481 890
e 481 1010
e 482 509
e 482 630
e 482 691
e 482 955
e 482 1031
e 483 504
e 483 875
e 483 953
e 484 790
e 484 953
e 484 999
e 485 649
e 485 1071
e 486 563
e 486 805
e 487 575
e 487 898
e 488 490
e 489 540
e 489 649
e 489 707
e 489 800
e 489 817
e 489 824
e 489 967
e 490 495
e 490 633
e 490 730
e 490 879
e 490 1001
e 490 1006
e 491 697
e 493 577
e 493 742
e 494 976
e 494 1012
e 495 615
e 496 681
e 496 829
e 496 1079
e 497 979
e 498 822
e 499 754
e 500 886
e 500 912
e 501 635
e 501 1062
e 502 898
e 502 911
e 503 864
e 504 595
e 504 604
e 504 630
e 504 661
e 504 859
e 505 601
e 505 839
e 506 731
e 506 762
e 507 681
e 507 875
e 509 1059
e 510 594
e 510 976
e 511 594
e 511 871
e 512 796
e 513 613
e 514 615
e 514 886
e 515 561
e 515 1079
e 516 754
e 516 1013
e 517 525
e 517 1059
e 518 1062
e 519 871
e 520 756
e 520 858
e 521 571
e 521 588
e 521 771
e 521 834
e 521 891
e 521 1069
e 522 953
e 522 1066
e 523 610
e 523 654
e 523 689
e 523 753
e 523 791
e 523 795
e 523 924
e 524 530
e 524 596
e 524 772
e 524 777
e 524 782
e 524 867
e 524 879
e 524 899
e 525 536
e 525 559
e 525 644
e 525 833
e 525 1018
e 525 1020
e 525 1070
e 526 645
e 531 639
e 531 1047
e 532 594
e 532 762
e 533 699
e 533 756
e 533 839
e 534 564
e 534 829
e 534 983
e 535 563
e 535 1012
e 536 1047
e 537 749
e 538 547
e 538 582
e 538 685
e 538 735
e 538 865
e 538 881
e 538 906
e 538 970
e 539 575
e 539 1066
e 541 648
e 541 805
e 541 1012
e 542 815
e 542 886
e 543 564
e 543 858
e 544 749
e 544 1011
e 545 839
e 545 1062
e 546 796
e 546 1011
e 548 575
e 548 764
e 549 563
e 549 607
e 550 578
e 550 1012
e 551 580
e 552 564
e 553 989
e 554 613
e 554 1059
e 555 947
e 556 871
e 557 575
e 558 562
e 558 700
e 558 812
e 558 900
e 558 914
e 558 954
e 558 972
e 558 975
e 558 1019
e 558 1041
e 559 701
e 559 770
e 560 805
e 561 589
e 561 703
e 561 1051
e 561 1065
e 562 1011
e 563 752
e 563 778
e 563 860
e 563 893
e 563 918
e 564 614
e 564 625
e 564 693
e 564 739
e 564 943
e 565 1039
e 566 639
e 566 1024
e 567 796
e 568 756
e 568 1004
e 569 601
e 569 989
e 570 696
e 570 864
e 571 731
e 572 815
e 572 1073
e 573 578
e 573 727
e 574 637
e 574 1059
e 576 639
e 576 680
e 576 727
e 577 606
e 577 1029
e 577 1070
e 578 608
e 578 612
e 578 619
e 578 623
e 578 733
e 578 843
e 578 1018
e 579 621
e 579 738
e 580 856
e 580 883
e 580 1002
e 580 1029
e 580 1078
e 581 683
e 581 912
e 581 983
e 582 647
e 583 587
e 583 605
e 583 640
e 583 651
e 583 726
e 583 847
e 583 894
e 584 696
e 584 814
e 584 1024
e 586 597
e 586 926
e 588 1024
e 589 947
e 590 822
e 590 886
e 591 698
e 591 758
e 591 888
e 591 889
e 591 964
e 593 639
e 593 947
e 594 657
e 594 662
e 594 881
e 594 960
e 594 966
e 594 990
e 594 1005
e 596 983
e 597 642
e 597 763
e 597 970
e 597 1078
e 598 686
e 599 680
e 599 768
e 600 770
e 601 712
e 601 952
e 601 1057
e 601 1067
e 602 731
e 603 958
e 604 934
e 605 968
e 605 999
e 606 621
e 607 665
e 607 744
e 607 845
e 607 995
e 607 1035
e 607 1040
e 608 701
e 609 1064
e 610 683
e 611 736
e 611 768
e 612 1026
e 613 622
e 613 667
e 613 824
e 613 833
e 613 862
e 613 928
e 613 942
e 615 620
e 615 831
e 615 890
e 615 933
e 615 1018
e 616 775
e 616 931
e 617 678
e 617 907
e 617 912
e 618 796
e 618 907
e 620 770
e 620 855
e 621 643
e 621 677
e 621 797
e 621 856
e 621 877
e 621 882
e 621 974
e 622 898
e 623 696
e 623 931
e 624 736
e 624 1013
e 625 1062
e 625 1063
e 626 911
e 627 697
e 627 1016
e 629 673
e 629 689
e 629 757
e 629 760
e 629 769
e 629 798
e 629 849
e 629 960
e 630 971
e 631 775
e 631 958
e 632 639
e 632 645
e 634 681
e 635 750
e 635 816
e 635 955
e 635 1020
e 635 1038
e 636 697
e 637 721
e 637 745
e 637 752
e 637 832
e 637 977
e 637 1002
e 638 953
e 638 989
e 639 650
e 639 688
e 639 1020
e 640 1079
e 641 1073
e 641 1079
e 642 684
e 644 842
e 645 703
e 645 965
e 645 1052
e 646 961
e 647 695
e 647 723
e 647 784
e 647 949
e 647 1028
e 648 661
e 648 705
e 648 761
e 648 828
e 648 903
e 648 946
e 648 948
e 648 1076
e 651 994
e 652 961
e 653 1016
e 656 702
e 656 926
e 657 901
e 658 907
e 659 802
e 659 875
e 660 683
e 661 1039
e 662 999
e 662 1063
e 663 986
e 664 681
e 664 822
e 664 1026
e 665 1012
e 666 768
e 666 875
e 666 1073
e 670 727
e 670 875
e 670 911
e 672 871
e 673 731
e 674 738
e 675 686
e 675 814
e 676 680
e 676 829
e 677 754
e 678 820
e 678 940
e 678 1003
e 678 1058
e 679 855
e 680 765
e 680 916
e 680 973
e 680 1046
e 681 724
e 681 740
e 681 825
e 681 838
e 681 910
e 682 851
e 683 687
e 683 783
e 683 861
e 683 868
e 683 933
e 683 941
e 683 1074
e 684 841
e 684 938
e 685 731
e 686 735
e 686 760
e 686 797
e 686 963
e 686 982
e 686 997
e 686 1069
e 687 913
e 687 1063
e 688 736
e 689 961
e 690 699
e 691 716
e 692 864
e 692 931
e 693 754
e 694 796
e 695 814
e 695 1013
e 696 932
e 696 1048
e 697 706
e 697 747
e 697 893
e 699 786
e 699 906
e 699 915
e 699 938
e 700 851
e 701 808
e 701 980
e 701 1010
e 701 1032
e 701 1058
e 702 713
e 702 734
e 702 744
e 702 771
e 702 956
e 704 976
e 705 716
e 706 822
e 707 738
e 707 968
e 708 754
e 708 986
e 708 999
e 709 749
e 709 908
e 710 989
e 711 762
e 713 976
e 714 749
e 714 829
e 714 1013
e 715 989
e 716 737
e 716 755
e 716 780
e 716 801
e 716 905
e 716 1025
e 717 757
e 717 1021
e 717 1056
e 717 1080
e 718 814
e 719 731
e 719 926
e 719 1059
e 720 1016
e 722 738
e 722 871
e 723 742
e 725 989
e 725 1055
e 726 947
e 727 860
e 727 1033
e 728 736
e 729 736
e 730 764
e 730 979
e 731 766
e 731 877
e 731 945
e 733 855
e 733 913
e 734 814
e 734 908
e 735 1059
e 736 902
e 737 934
e 738 806
e 738 1044
e 739 979
e 741 796
e 741 934
e 742 745
e 742 830
e 742 974
e 743 994
e 744 971
e 746 953
e 749 1031
e 750 994
e 751 768
e 751 864
e 752 931
e 754 794
e 754 996
e 754 998
e 755 898
e 756 949
e 756 1044
e 757 842
e 761 931
e 762 982
e 762 996
e 762 1077
e 764 792
e 764 843
e 765 908
e 766 901
e 767 815
e 767 911
e 767 1026
e 768 788
e 768 825
e 768 843
e 768 1022
e 769 934
e 770 788
e 770 918
e 770 932
e 771 1026
e 773 829
e 773 911
e 774 815
e 775 778
e 775 793
e 775 874
e 775 892
e 775 920
e 775 925
e 775 948
e 775 984
e 775 993
e 776 829
e 780 875
e 781 1026
e 781 1073
e 782 907
e 783 822
e 783 851
e 784 926
e 785 1073
e 786 926
e 786 1013
e 787 840
e 789 898
e 789 908
e 789 1064
e 790 817
e 790 869
e 790 896
e 790 914
e 790 946
e 790 973
e 790 1031
e 791 901
e 791 1055
e 794 912
e 795 1024
e 796 818
e 796 896
e 796 1001
e 796 1061
e 797 976
e 798 802
e 798 1055
e 799 1055
e 800 939
e 800 1011
e 801 971
e 802 861
e 802 940
e 802 998
e 805 810
e 805 811
e 805 919
e 805 1053
e 805 1075
e 808 855
e 808 864
e 810 875
e 811 1039
e 812 907
e 813 855
e 814 1005
e 815 893
e 815 1068
e 815 1074
e 816 1004
e 818 840
e 818 851
e 819 1066
e 819 1079
e 822 836
e 822 857
e 825 1039
e 827 901
e 827 958
e 827 1016
e 829 896
e 829 899
e 829 972
e 829 992
e 830 1063
e 832 971
e 834 851
e 835 875
e 835 912
e 839 978
e 840 848
e 840 867
e 840 936
e 840 951
e 840 1032
e 840 1041
e 841 994
e 842 874
e 842 1010
e 842 1067
e 846 994
e 846 1047
e 849 1016
e 850 851
e 850 886
e 851 866
e 851 879
e 852 901
e 855 862
e 857 911
e 858 929
e 858 957
e 860 864
e 861 907
e 862 971
e 863 908
e 864 935
e 864 1022
e 866 931
e 866 976
e 870 898
e 870 1073
e 871 1029
e 871 1069
e 872 939
e 875 1076
e 876 961
e 876 1016
e 878 1047
e 878 1062
e 878 1064
e 880 961
e 881 971
e 884 1055
e 885 1039
e 886 959
e 886 1030
e 887 1004
e 889 1011
e 890 958
e 895 953
e 897 911
e 897 1039
e 899 1011
e 901 1034
e 901 1067
e 902 908
e 903 989
e 903 1066
e 904 907
e 908 930
e 908 937
e 909 1047
e 911 962
e 913 951
e 913 1003
e 913 1006
e 913 1030
e 915 994
e 917 1016
e 917 1064
e 920 939
e 922 1064
e 923 989
e 923 1016
e 924 1039
e 925 953
e 925 1012
e 926 963
e 926 990
e 926 1048
e 927 931
e 929 1064
e 930 947
e 930 1072
e 931 1035
e 932 1012
e 934 954
e 934 1042
e 936 979
e 938 1064
e 939 1075
e 943 1013
e 945 1063
e 947 1007
e 947 1015
e 950 999
e 953 991
e 956 1059
e 963 971
e 968 1017
e 969 1013
e 970 1013
e 971 1050
e 976 1027
e 976 1036
e 977 1012
e 979 1038
e 981 1073
e 982 1063
e 984 1039
e 985 1073
e 986 1077
e 992 1073
e 995 1059
e 998 1024
e 999 1009
e 999 1037
e 1000 1066
e 1002 1063
e 1004 1045
e 1004 1051
e 1005 1059
e 1009 1011
e 1023 1055
e 1024 1027
e 1024 1037
e 1025 1059
e 1026 1036
e 1028 1064
e 1033 1039
e 1033 1073
e 1038 1064
e 1045 1047
e 1047 1054
e 1064 1080
